proyfinal/src/viki/013/andrea/andrea-localstore/experimentInOfficeAgust.take6/worker_4/f247b274-b599-47d5-86f5-5e9b0686aa67.als.cnf.out
Reading from standard input... Use '--help' for help.
============================[ Problem Statistics ]=============================
|                                                                             |
|  Number of variables:         87638                                         |
|  Number of clauses:          161767                                         |
|  Parse time:                   0.04 s                                       |
|                                                                             |
============================[ Search Statistics ]==============================
| Conflicts |          ORIGINAL         |          LEARNT          | Progress |
|           |    Vars  Clauses Literals |    Limit  Clauses Lit/Cl |          |
===============================================================================
|       100 |   62394   105173   262825 |    38563      100     28 | 28.805 % |
|       250 |   62394   105173   262825 |    42419      250     95 | 28.805 % |
|       475 |   62394   105173   262825 |    46661      475     84 | 28.805 % |
|       812 |   62390   105157   262781 |    51327      807     68 | 28.809 % |
|      1318 |   62382   105115   262679 |    56460     1312     64 | 28.819 % |
|      2077 |   62382   105115   262679 |    62106     2071     62 | 28.819 % |
|      3216 |   62381   105071   262589 |    68317     3206     64 | 28.820 % |
|      4924 |   62378   105063   262567 |    75149     4912     67 | 28.823 % |
|      7486 |   62339   104916   262202 |    82664     6971     71 | 28.868 % |
|     11330 |   48498    63947   161420 |    90930     8728     63 | 44.661 % |
===============================================================================
restarts              : 51
conflicts             : 11843          (7429 /sec)
decisions             : 36225          (0.00 % random) (22725 /sec)
propagations          : 17336910       (10875837 /sec)
conflict literals     : 720013         (54.03 % deleted)
Memory used           : 32.40 MB
CPU time              : 1.59408 s

UNSATISFIABLE
